100 1309
225 600 440 1100 440 675 1100 990 375 525 375 600 660 440 525 770 225 660 330 660 550 660 1100 330 300 770 770 990 440 550 990 600 750 75 300 675 550 675 375 525 550 110 675 990 450 1100 220 550 1100 75 990 675 440 750 880 440 990 550 550 675 150 300 550 440 525 525 75 525 440 990 675 375 225 450 1100 450 660 660 525 440 550 330 750 600 525 300 990 525 75 770 75 440 440 75 880 300 375 440 525 600 
165 440 360 900 360 495 900 810 275 385 275 440 540 360 385 630 165 540 270 540 450 540 900 270 220 630 630 810 360 450 810 440 550 55 220 495 450 495 275 385 450 90 495 810 330 900 180 450 900 55 810 495 360 550 720 360 810 450 450 495 110 220 450 360 385 385 55 385 360 810 495 275 165 330 900 330 540 540 385 360 450 270 550 440 385 220 810 385 55 630 55 360 360 55 720 220 275 360 385 440 
